2830.1
0 194 193 192 191 190 189 7 8 9 10 11 12 13 14 15 16 29 28 27 26 25 24 23 22 21 20 33 34 35 36 49 50 51 52 53 54 55 68 67 66 65 64 63 62 61 74 73 72 59 60 48 47 46 37 38 39 40 41 42 43 56 57 58 45 44 31 30 32 19 18 17 4 3 2 1 184 183 182 169 170 171 172 173 186 185 187 188 6 5 174 175 162 161 160 159 158 157 156 155 154 153 140 139 138 137 150 151 152 166 167 168 181 180 179 178 177 176 163 164 165 141 142 143 144 145 146 147 148 149 136 135 134 133 132 131 118 117 116 103 102 101 100 99 98 111 112 113 114 115 129 128 127 126 125 124 130 119 120 121 122 123 110 109 108 107 106 105 104 70 69 82 83 84 97 96 95 94 93 92 91 90 89 88 87 86 85 75 76 77 78 79 80 81 71 
